NAME: gr202
TYPE: TSP
COMMENT: 202-city problem (Groetschel)
DIMENSION: 202
EDGE_WEIGHT_TYPE: EUC_2D
NODE_COORD_SECTION
1 288 149
2 288 129
3 270 133
4 256 141
5 256 157
6 246 157
7 236 169
8 228 169
9 228 161
10 220 169
11 212 169
12 204 169
13 196 169
14 188 169
15 196 161
16 188 145
17 172 145
18 164 145
19 156 145
20 148 145
21 140 145
22 132 145
23 124 145
24 116 145
25 108 145
26 100 145
27 92 145
28 84 145
29 76 145
30 68 145
31 60 145
32 52 145
33 44 145
34 36 145
35 28 145
36 20 145
37 12 145
38 4 145
39 4 153
40 4 161
41 4 169
42 4 177
43 4 185
44 4 193
45 4 201
46 4 209
47 4 217
48 4 225
49 4 233
50 4 241
51 4 249
52 4 257
53 4 265
54 4 273
55 4 281
56 4 289
57 4 297
58 4 305
59 4 313
60 4 321
61 4 329
62 4 337
63 4 345
64 4 353
65 4 361
66 4 369
67 4 377
68 4 385
69 4 393
70 4 401
71 4 409
72 4 417
73 4 425
74 4 433
75 4 441
76 4 449
77 4 457
78 4 465
79 4 473
80 4 481
81 4 489
82 4 497
83 12 497
84 20 497
85 28 497
86 36 497
87 44 497
88 52 497
89 60 497
90 68 497
91 76 497
92 84 497
93 92 497
94 100 497
95 108 497
96 116 497
97 124 497
98 132 497
99 140 497
100 148 497
101 156 497
102 164 497
103 172 497
104 180 497
105 188 497
106 196 497
107 204 497
108 212 497
109 220 497
110 228 497
111 236 497
112 244 497
113 252 497
114 260 497
115 268 497
116 276 497
117 284 497
118 292 497
119 300 497
120 308 497
121 316 497
122 324 497
123 332 497
124 340 497
125 348 497
126 356 497
127 364 497
128 372 497
129 380 497
130 388 497
131 396 497
132 404 497
133 412 497
134 420 497
135 428 497
136 436 497
137 444 497
138 452 497
139 460 497
140 468 497
141 476 497
142 484 497
143 492 497
144 500 497
145 508 497
146 516 497
147 524 497
148 532 497
149 540 497
150 548 497
151 556 497
152 564 497
153 572 497
154 580 497
155 588 497
156 596 497
157 604 497
158 612 497
159 620 497
160 628 497
161 636 497
162 644 497
163 652 497
164 660 497
165 668 497
166 676 497
167 684 497
168 692 497
169 700 497
170 708 497
171 716 497
172 724 497
173 732 497
174 740 497
175 748 497
176 756 497
177 764 497
178 772 497
179 780 497
180 788 497
181 796 497
182 804 497
183 812 497
184 820 497
185 828 497
186 836 497
187 844 497
188 852 497
189 860 497
190 868 497
191 876 497
192 884 497
193 892 497
194 900 497
195 908 497
196 916 497
197 924 497
198 932 497
199 940 497
200 948 497
201 956 497
202 964 497
EOF